c A SAT instance generated from a 3-CNF formula that had 36 clauses and 12 variables
p cnf 12 36
1 -11 -12 0
-8 -10 -9 0
-1 4 -9 0
2 -10 -8 0
3 4 -12 0
-8 -3 9 0
-6 9 -1 0
4 -3 -10 0
-8 -6 3 0
5 -12 -10 0
6 5 7 0
10 -5 8 0
-5 -4 7 0
-3 -1 6 0
-7 1 11 0
-4 11 -10 0
-4 1 11 0
-11 -1 6 0
5 -12 -10 0
9 -3 4 0
-1 -4 6 0
2 5 8 0
-11 6 4 0
-4 -5 -1 0
7 -11 -6 0
10 -3 7 0
5 1 2 0
11 -1 6 0
-9 11 -1 0
-6 1 12 0
8 1 -3 0
5 10 4 0
9 -4 11 0
8 -11 -4 0
9 8 -1 0
9 -10 12 0
